non-incremental/QF_BV/20260613-cryptol-bv-math/arith_correct_union/arith_correct_union_32.smt2
(set-info :smt-lib-version 2.6)
(set-logic QF_BV)
(set-info :source |
Generated by: Langston Barrett
Generated on: 2026-06-13
Generator: Cryptol 3.5.0 (via SBV) from a custom .cry source
Application: Soundness of bitvector abstract-domain primitives used in
  the strides domain of What4 (https://github.com/GaloisInc/what4),
  encoded as pure QF_BV soundness lemmas.
Target solver: bitwuzla, z3
Time limit: 15.0

Family: arith_correct_union

Asserts soundness of the abstract-domain union (lattice join) on
What4's wraparound-aware arithmetic interval domain: for any x in
either input domain, x is also in the union.

A 'Dom n' is either bottom or an interval { lo, sz } whose
membership predicate wraps modulo 2^n: x in Dom iff x - lo <= sz.
The union picks endpoint representatives in [n+2] so the midpoints
of the two intervals fit within 2^(n-1) of each other, then takes
the bounding interval of the four endpoints. The construction is
subtle because of the wraparound behavior.

The k = 32 variant operates on k-bit intervals.
|)
; Cryptol source code for this benchmark:
; // Correctness of `union` on the arithmetic interval abstract domain,
; // as used in What4 (and many other software-engineering applications:
; // range analysis in compilers, polyhedral analysis, etc.).
; //
; // A `Dom n` is either an empty domain (the `isBot` flag) or an
; // "interval" {lo, sz} representing the wraparound-aware set
; //
; //   { x : [n] | x - lo <= sz }
; //
; // (where the subtraction wraps modulo 2^n). This lets one element
; // describe both ordinary intervals like [3, 9] and wraparound intervals
; // like [0xFC, 0x07] in 8 bits.
; //
; // `union` chooses representatives of the two interval midpoints whose
; // difference fits within 2^(n-1), then takes the bounding interval over
; // the resulting endpoints. The construction is subtle because of the
; // wraparound-aware arithmetic.
; //
; // Property: correct_union -- for any x in either input, x is in the
; // union (soundness of the abstract join).
; module arith_union where
;
; type Property = Bit
;
; type Dom n = { lo : [n], sz : [n], isBot : Bit }
;
; interval : {n} (fin n) => [n] -> [n] -> Dom n
; interval l s = { lo = l, sz = s, isBot = False }
;
; bottom : {n} (fin n) => Dom n
; bottom = { lo = 0, sz = 0, isBot = True }
;
; bit : {i, n} (fin n, n > i) => [n]
; bit = 1 # (0 : [i])
;
; top : {n} (fin n) => Dom n
; top = interval 0 (~ 0)
;
; mem : {n} (fin n) => Dom n -> [n] -> Bit
; mem a x = ~ a.isBot /\ x - a.lo <= a.sz
;
; /** Carry detection on unsigned add. Used to check overflow within
;     `union` (both inputs zero-extended to `[n+2]` so they don't really
;     overflow there; the helper still preserves intent). */
; carry : {n} (fin n) => [n] -> [n] -> Bit
; carry x y = (x + y) < x
;
; /** Checked unsigned addition (no overflow expected by construction). */
; infixl 80 .+.
; (.+.) : {n} (fin n) => [n] -> [n] -> [n]
; x .+. y = if carry x y then error "overflow" else x + y
;
; /** Checked unsigned subtraction. */
; infixl 80 .-.
; (.-.) : {n} (fin n) => [n] -> [n] -> [n]
; x .-. y = if x < y then error "underflow" else x - y
;
; /** Lattice join / set union over the wraparound-aware arithmetic
;     interval domain.
;
;     Picks endpoint representatives in `[n+2]` so the midpoints of the
;     two intervals are within 2^(n-1) of each other, then takes the
;     bounding interval of the four endpoints. If the spanning width
;     reaches 2^n, the result is top. */
; union : {n} (fin n) => Dom n -> Dom n -> Dom n
; union a b =
;   if a.isBot /\ b.isBot then bottom
;   else if a.isBot then b
;   else if b.isBot then a
;   else if cw >= size then top
;   else interval (drop`{2} cl) (drop`{2} cw)
;   where
;     size : [n+2]
;     size = bit`{n}
;     am = 2 * zext a.lo .+. zext a.sz
;     bm = 2 * zext b.lo .+. zext b.sz
;     al' = if am .+. size < bm then zext a.lo .+. size else zext a.lo
;     bl' = if bm .+. size < am then zext b.lo .+. size else zext b.lo
;     ah' = al' .+. zext a.sz
;     bh' = bl' .+. zext b.sz
;     cl = min al' bl'
;     ch = max ah' bh'
;     cw = ch .-. cl
;
;
; // -------- properties --------
;
; correct_union : {n} (fin n) => Dom n -> Dom n -> [n] -> Property
; correct_union a b x =
;   (mem a x \/ mem b x) ==> mem (union a b) x
;
; property correct_union_4   = correct_union`{4}
; property correct_union_8   = correct_union`{8}
; property correct_union_16  = correct_union`{16}
; property correct_union_32  = correct_union`{32}
(set-info :license "https://creativecommons.org/licenses/by/4.0/")
(set-info :category "industrial")
(set-info :status unsat)
(define-fun s21 () (_ BitVec 34) #b0000000000000000000000000000000010)
(define-fun s22 () (_ BitVec 2) #b00)
(define-fun s30 () (_ BitVec 34) #b0100000000000000000000000000000000)
(define-fun s119 () (_ BitVec 32) #x00000000)
(define-fun s126 () (_ BitVec 32) #xffffffff)
(declare-fun s0 () Bool)
(declare-fun s1 () (_ BitVec 32))
(declare-fun s2 () (_ BitVec 32))
(declare-fun s3 () Bool)
(declare-fun s4 () (_ BitVec 32))
(declare-fun s5 () (_ BitVec 32))
(declare-fun s6 () (_ BitVec 32))
(define-fun s7 () Bool (not s0))
(define-fun s8 () (_ BitVec 32) (bvsub s6 s1))
(define-fun s9 () Bool (bvult s8 s2))
(define-fun s10 () Bool (= s2 s8))
(define-fun s11 () Bool (or s9 s10))
(define-fun s12 () Bool (and s7 s11))
(define-fun s13 () Bool (not s3))
(define-fun s14 () (_ BitVec 32) (bvsub s6 s4))
(define-fun s15 () Bool (bvult s14 s5))
(define-fun s16 () Bool (= s5 s14))
(define-fun s17 () Bool (or s15 s16))
(define-fun s18 () Bool (and s13 s17))
(define-fun s19 () Bool (or s12 s18))
(define-fun s20 () Bool (and s0 s3))
(define-fun s23 () (_ BitVec 34) (concat s22 s1))
(define-fun s24 () (_ BitVec 34) (bvmul s21 s23))
(define-fun s25 () (_ BitVec 34) (concat s22 s2))
(define-fun s26 () (_ BitVec 34) (bvadd s24 s25))
(define-fun s27 () Bool (bvult s26 s24))
(define-fun s28 () Bool (not s27))
(define-fun s29 () Bool (and s28 s28))
(define-fun s31 () (_ BitVec 34) (bvadd s26 s30))
(define-fun s32 () Bool (bvult s31 s26))
(define-fun s33 () Bool (not s32))
(define-fun s34 () Bool (and s28 s33))
(define-fun s35 () Bool (and s29 s34))
(define-fun s36 () (_ BitVec 34) (concat s22 s4))
(define-fun s37 () (_ BitVec 34) (bvmul s21 s36))
(define-fun s38 () (_ BitVec 34) (concat s22 s5))
(define-fun s39 () (_ BitVec 34) (bvadd s37 s38))
(define-fun s40 () Bool (bvult s39 s37))
(define-fun s41 () Bool (not s40))
(define-fun s42 () Bool (and s35 s41))
(define-fun s43 () Bool (bvult s31 s39))
(define-fun s44 () (_ BitVec 34) (bvadd s23 s30))
(define-fun s45 () Bool (bvult s44 s23))
(define-fun s46 () Bool (not s45))
(define-fun s47 () Bool (not s43))
(define-fun s48 () Bool (or s46 s47))
(define-fun s49 () Bool (and s42 s48))
(define-fun s50 () Bool (and s49 s49))
(define-fun s51 () (_ BitVec 34) (ite s43 s44 s23))
(define-fun s52 () (_ BitVec 34) (bvadd s25 s51))
(define-fun s53 () Bool (bvult s52 s51))
(define-fun s54 () Bool (not s53))
(define-fun s55 () Bool (and s49 s54))
(define-fun s56 () Bool (and s50 s55))
(define-fun s57 () Bool (and s41 s41))
(define-fun s58 () (_ BitVec 34) (bvadd s30 s39))
(define-fun s59 () Bool (bvult s58 s39))
(define-fun s60 () Bool (not s59))
(define-fun s61 () Bool (and s41 s60))
(define-fun s62 () Bool (and s57 s61))
(define-fun s63 () Bool (and s28 s62))
(define-fun s64 () Bool (bvult s58 s26))
(define-fun s65 () (_ BitVec 34) (bvadd s30 s36))
(define-fun s66 () Bool (bvult s65 s36))
(define-fun s67 () Bool (not s66))
(define-fun s68 () Bool (not s64))
(define-fun s69 () Bool (or s67 s68))
(define-fun s70 () Bool (and s63 s69))
(define-fun s71 () Bool (and s70 s70))
(define-fun s72 () (_ BitVec 34) (ite s64 s65 s36))
(define-fun s73 () (_ BitVec 34) (bvadd s38 s72))
(define-fun s74 () Bool (bvult s73 s72))
(define-fun s75 () Bool (not s74))
(define-fun s76 () Bool (and s70 s75))
(define-fun s77 () Bool (and s71 s76))
(define-fun s78 () Bool (and s56 s77))
(define-fun s79 () Bool (bvugt s52 s73))
(define-fun s80 () Bool (ite s79 s56 s77))
(define-fun s81 () Bool (and s78 s80))
(define-fun s82 () Bool (and s49 s70))
(define-fun s83 () Bool (bvult s51 s72))
(define-fun s84 () Bool (ite s83 s49 s70))
(define-fun s85 () Bool (and s82 s84))
(define-fun s86 () Bool (and s81 s85))
(define-fun s87 () (_ BitVec 34) (ite s79 s52 s73))
(define-fun s88 () (_ BitVec 34) (ite s83 s51 s72))
(define-fun s89 () Bool (bvult s87 s88))
(define-fun s90 () Bool (not s89))
(define-fun s91 () Bool (and s86 s90))
(define-fun s92 () Bool (and s86 s91))
(define-fun s93 () Bool (or s3 s92))
(define-fun s94 () Bool (or s0 s93))
(define-fun s95 () Bool (or s20 s94))
(define-fun s96 () Bool (ite s0 s3 s20))
(define-fun s97 () Bool (or s20 s96))
(define-fun s98 () Bool (not s97))
(define-fun s99 () (_ BitVec 34) (bvsub s87 s88))
(define-fun s100 () Bool (bvugt s99 s30))
(define-fun s101 () Bool (= s30 s99))
(define-fun s102 () Bool (or s100 s101))
(define-fun s103 () Bool (or s85 s102))
(define-fun s104 () Bool (or s3 s103))
(define-fun s105 () Bool (or s0 s104))
(define-fun s106 () Bool (or s20 s105))
(define-fun s107 () Bool (and s95 s106))
(define-fun s108 () Bool (or s92 s102))
(define-fun s109 () Bool (or s3 s108))
(define-fun s110 () Bool (or s0 s109))
(define-fun s111 () Bool (or s20 s110))
(define-fun s112 () Bool (and s95 s111))
(define-fun s113 () Bool (and s107 s112))
(define-fun s114 () Bool (not s98))
(define-fun s115 () Bool (or s113 s114))
(define-fun s116 () Bool (and s95 s115))
(define-fun s117 () Bool (not s19))
(define-fun s118 () Bool (or s116 s117))
(define-fun s120 () (_ BitVec 32) ((_ extract 31 0) s88))
(define-fun s121 () (_ BitVec 32) (ite s102 s119 s120))
(define-fun s122 () (_ BitVec 32) (ite s3 s1 s121))
(define-fun s123 () (_ BitVec 32) (ite s0 s4 s122))
(define-fun s124 () (_ BitVec 32) (ite s20 s119 s123))
(define-fun s125 () (_ BitVec 32) (bvsub s6 s124))
(define-fun s127 () (_ BitVec 32) ((_ extract 31 0) s99))
(define-fun s128 () (_ BitVec 32) (ite s102 s126 s127))
(define-fun s129 () (_ BitVec 32) (ite s3 s2 s128))
(define-fun s130 () (_ BitVec 32) (ite s0 s5 s129))
(define-fun s131 () (_ BitVec 32) (ite s20 s119 s130))
(define-fun s132 () Bool (bvult s125 s131))
(define-fun s133 () Bool (= s125 s131))
(define-fun s134 () Bool (or s132 s133))
(define-fun s135 () Bool (and s98 s134))
(define-fun s136 () Bool (or s117 s135))
(define-fun s137 () Bool (and s118 s136))
(assert (not s137))
(check-sat)
(exit)
